NAME : zqloutput/eax-hard-simple-rescaleandround/50-6.tsp
TYPE : TSP
DIMENSION : 50
EDGE_WEIGHT_TYPE : EUC_2D
NODE_COORD_SECTION
1 589670 265663
2 458662 708110
3 388927 399791
4 953406 392062
5 165364 250824
6 299694 835701
7 44201 774019
8 951503 918694
9 424570 617796
10 517298 591803
11 398175 932318
12 235722 830
13 159026 59912
14 857109 327086
15 797544 180692
16 246110 708577
17 467602 650672
18 5999 840445
19 425310 695719
20 167399 96554
21 929837 739089
22 760419 437064
23 685999 436620
24 145980 977775
25 306731 936395
26 558104 459970
27 487044 586524
28 689624 868487
29 635052 818102
30 761866 681538
31 654644 949870
32 893202 830454
33 256619 804356
34 924284 16181
35 51360 935914
36 219374 831142
37 550752 689611
38 887449 988219
39 363723 554633
40 959902 526215
41 225646 171370
42 314110 550083
43 540452 788203
44 897143 926748
45 420881 198509
46 556904 42936
47 533692 916152
48 630522 298207
49 959178 878734
50 339262 418576
EOF
